500
[100,103,108,113,114,115,123,125,126,130,137,138,139,142,145,147,153,155,164,183,184,188,199,202,204,207,209,213,218,220,222,223,226,229,231,232,234,236,239,240,241,243,246,248,251,256,260,263,266,273,277,283,285,288,289,290,291,294,301,305,310,313,319,329,331,332,333,336,343,348,350,356,358,360,368,374,375,379,385,388,390,391,395,396]
[1,1,2,2,1,1,2,1,1,1,1,1,1,1,1,1,1,1,1,1,2,3,1,1,1,2,2,1,1,1,1,1,1,1,1,1,1,1,1,1,1,1,1,1,1,1,1,2,1,2,1,1,2,1,1,1,1,1,1,1,1,1,2,1,1,1,1,1,1,1,1,1,1,1,1,1,1,1,1,1,1,2,3,2]
